language ESSENCE' 1.0
$ loaded file: carseqdata/csplib-instance-76
letting numcars=200
letting numclasses=27
letting numoptions=5
letting optMax=[1, 2, 1, 2, 1]
letting windowSize=[2, 3, 3, 5, 5]
letting numberPerClass=[11, 2, 5, 8, 4, 10, 4, 2, 2, 4, 16, 36, 1, 3, 13, 2, 10, 1, 3, 6, 24, 8, 6, 2, 4, 4, 9]
letting optionsRequired=[[0, 1, 1, 0, 0], [0, 0, 1, 1, 1], [0, 0, 1, 0, 0], [1, 1, 1, 0, 0], [1, 1, 0, 0, 1], [1, 0, 0, 1, 0], [0, 1, 0, 0, 1], [1, 1, 1, 1, 0], [0, 1, 1, 0, 1], [0, 0, 1, 1, 0], [0, 1, 0, 1, 0], [0, 1, 0, 0, 0], [1, 0, 1, 0, 1], [1, 0, 0, 1, 1], [1, 0, 0, 0, 0], [0, 1, 0, 1, 1], [1, 1, 0, 1, 0], [1, 1, 1, 0, 1], [1, 0, 1, 1, 0], [0, 0, 0, 0, 1], [1, 1, 0, 0, 0], [0, 0, 0, 1, 0], [0, 1, 1, 1, 0], [1, 0, 0, 0, 1], [0, 0, 1, 0, 1], [0, 0, 0, 0, 0], [1, 0, 1, 0, 0]]
